25
1 2
1 3
1 4
1 6
1 7
1 10
1 11
1 12
1 15
1 16
1 17
1 21
2 3
2 5
2 7
2 8
2 13
2 14
2 15
2 16
2 17
2 18
2 23
2 24
3 5
3 6
3 9
3 11
3 13
3 16
3 18
3 19
3 20
3 21
3 25
4 7
4 8
4 9
4 10
4 14
4 17
4 18
4 20
4 22
4 23
5 6
5 7
5 8
5 10
5 11
5 12
5 17
5 20
5 22
6 8
6 9
6 10
6 12
6 14
6 15
6 17
6 18
6 21
6 22
7 8
7 10
7 11
7 13
7 15
7 16
7 18
7 19
7 20
7 21
7 22
7 23
7 25
8 11
8 12
8 13
8 15
8 16
8 18
8 19
8 20
8 21
8 22
9 10
9 12
9 13
9 14
9 16
9 18
9 22
9 23
9 24
9 25
10 11
10 12
10 15
10 17
10 24
10 25
11 14
11 17
11 19
11 22
12 13
12 16
12 17
12 19
12 20
12 21
12 23
12 24
13 18
13 19
13 22
13 24
14 16
14 17
14 18
14 19
14 20
14 21
14 24
15 16
15 17
15 18
15 20
15 23
15 24
16 19
16 20
16 21
16 22
16 24
17 19
17 21
17 22
17 23
17 24
18 19
18 21
18 22
18 23
19 20
19 22
19 23
19 24
19 25
20 21
20 22
20 25
21 22
23 25
